out/bwp_11_10_1_lp.out
5
-0 2    0 4
7 2    7 4
10 -0    10 0
-0 1    0 1
10 2    10 2
10 4    10 4
1 -0    2 4
3 -0    4 4
5 0    6 4
8 -0    9 4
